QPLIB_2181
LGQ
minimize
280 # number of variables
270 # number of constraints
0.0 # default value for linear coefficients in objective
90 # number of non-default linear coefficients in objective
1 1.0
2 1.0
3 1.0
4 1.0
5 1.0
6 1.0
7 1.0
8 1.0
9 1.0
10 1.0
11 1.0
12 1.0
13 1.0
14 1.0
15 1.0
16 1.0
17 1.0
18 1.0
19 1.0
20 1.0
21 1.0
22 1.0
23 1.0
24 1.0
25 1.0
26 1.0
27 1.0
28 1.0
29 1.0
30 1.0
31 1.0
32 1.0
33 1.0
34 1.0
35 1.0
36 1.0
37 1.0
38 1.0
39 1.0
40 1.0
41 1.0
42 1.0
43 1.0
44 1.0
45 1.0
46 1.0
47 1.0
48 1.0
49 1.0
50 1.0
51 1.0
52 1.0
53 1.0
54 1.0
55 1.0
56 1.0
57 1.0
58 1.0
59 1.0
60 1.0
61 1.0
62 1.0
63 1.0
64 1.0
65 1.0
66 1.0
67 1.0
68 1.0
69 1.0
70 1.0
71 1.0
72 1.0
73 1.0
74 1.0
75 1.0
76 1.0
77 1.0
78 1.0
79 1.0
80 1.0
81 1.0
82 1.0
83 1.0
84 1.0
85 1.0
86 1.0
87 1.0
88 1.0
89 1.0
90 1.0
0.0 # objective constant
90 # number of quadratic terms in all constraints
181 1663070068 1651076122 2.0
182 1852403556 824206179 2.0
183 1768711012 12321 2.0
184 775173731 1 2.0
185 1646292852 1 2.0
186 824209008 1 2.0
187 12321 50 2.0
188 1 1 2.0
189 1651076122 18677761 2.0
190 1852403556 1 2.0
191 1768711012 50 2.0
192 775173731 1 2.0
193 1651076122 1646292852 2.0
194 1852403556 824209008 2.0
195 1768711012 12321 2.0
196 775173731 1 2.0
197 1663070068 18677761 2.0
198 824206179 1 2.0
199 12321 50 2.0
200 1 1 2.0
201 1651076122 193 2.0
202 1852403556 1 2.0
203 1768711012 50 2.0
204 775173731 1 2.0
205 1663070068 1651076122 2.0
206 1852403556 824206179 2.0
207 1768711012 12321 2.0
208 775173731 1 2.0
209 1663070068 193 2.0
210 824210800 1 2.0
211 50 -1008848863 2.0
212 32530 1 2.0
213 1651076122 1 2.0
214 1852403556 1 2.0
215 1768711012 50 2.0
216 775173731 1 2.0
217 1663070068 1651076122 2.0
218 1852403556 824210800 2.0
219 1768711012 -1008848863 2.0
220 775173731 32530 2.0
221 1763733364 1 2.0
222 824209265 1 2.0
223 12321 50 2.0
224 1 1 2.0
225 1651076122 1 2.0
226 1852403556 1 2.0
227 1768711012 50 2.0
228 775173731 1 2.0
229 1763733364 1651076122 2.0
230 1852403556 824209265 2.0
231 1768711012 12321 2.0
232 775173731 1 2.0
233 1864396660 1 2.0
234 824205172 1 2.0
235 12321 50 2.0
236 1 1 2.0
237 1651076122 1 2.0
238 1852403556 1 2.0
239 1768711012 50 2.0
240 775173731 1 2.0
241 1864396660 1651076122 2.0
242 1852403556 824205172 2.0
243 1768711012 12321 2.0
244 775173731 1 2.0
245 1931505524 1 2.0
246 824209508 1 2.0
247 50 -1008848607 2.0
248 32530 1 2.0
249 1651076122 385 2.0
250 1852403556 1 2.0
251 1768711012 50 2.0
252 775173731 1 2.0
253 1931505524 1651076121 2.0
254 1684959076 824209508 2.0
255 1651076196 -1008848607 2.0
256 1932407863 32530 2.0
257 1868767344 385 2.0
258 540090479 1 2.0
259 50 50 2.0
260 1 1 2.0
261 1651076121 18686449 2.0
262 1684959076 1 2.0
263 1651076196 50 2.0
264 1932407863 1 2.0
265 1868767344 1651076121 2.0
266 1684959076 540090479 2.0
267 1651076196 50 2.0
268 1932407863 1 2.0
269 1868767344 18686449 2.0
270 540090479 1 2.0
1161 # number of linear terms in all constraints
1 91 -66.0
1 92 49.0
1 93 -81.0
1 94 73.0
1 95 15.0
1 96 56.0
1 97 38.0
1 98 -26.0
1 99 74.0
1 100 48.0
1 101 -1.0
2 91 -29.0
2 92 46.0
2 93 -48.0
2 94 -21.0
2 95 55.0
2 96 68.0
2 97 14.0
2 98 42.0
2 99 -84.0
2 100 -9.0
2 102 -1.0
3 91 8.0
3 92 -22.0
3 93 13.0
3 94 91.0
3 95 73.0
3 96 -68.0
3 97 -45.0
3 98 -48.0
3 99 84.0
3 100 -13.0
3 103 -1.0
4 91 -75.0
4 92 -84.0
4 93 88.0
4 94 -95.0
4 95 -70.0
4 96 -24.0
4 97 -69.0
4 98 5.0
4 99 75.0
4 100 -14.0
4 104 -1.0
5 91 -37.0
5 92 53.0
5 93 -79.0
5 94 53.0
5 95 40.0
5 96 -57.0
5 97 52.0
5 98 -18.0
5 99 29.0
5 100 85.0
5 105 -1.0
6 91 37.0
6 92 -13.0
6 93 21.0
6 94 14.0
6 95 26.0
6 96 -7.0
6 97 26.0
6 98 -73.0
6 99 92.0
6 100 -71.0
6 106 -1.0
7 91 -35.0
7 92 90.0
7 93 -29.0
7 94 -20.0
7 95 -80.0
7 96 90.0
7 97 96.0
7 98 14.0
7 99 73.0
7 100 -70.0
7 107 -1.0
8 91 29.0
8 92 -88.0
8 93 90.0
8 94 93.0
8 95 56.0
8 96 60.0
8 97 13.0
8 98 -44.0
8 99 92.0
8 100 15.0
8 108 -1.0
9 91 -25.0
9 92 84.0
9 93 -95.0
9 94 53.0
9 95 44.0
9 96 17.0
9 97 -15.0
9 98 28.0
9 99 49.0
9 100 -87.0
9 109 -1.0
10 91 54.0
10 92 40.0
10 93 -76.0
10 94 -40.0
10 95 -86.0
10 96 37.0
10 97 -27.0
10 98 45.0
10 99 -61.0
10 100 -69.0
10 110 -1.0
11 91 66.0
11 92 9.0
11 93 -37.0
11 94 5.0
11 95 -13.0
11 96 -58.0
11 97 45.0
11 98 -100.0
11 99 16.0
11 100 -5.0
11 111 -1.0
12 91 52.0
12 92 -75.0
12 93 -98.0
12 95 68.0
12 96 70.0
12 97 -82.0
12 98 71.0
12 99 57.0
12 100 15.0
12 112 -1.0
13 91 65.0
13 92 49.0
13 93 81.0
13 94 1.0
13 95 76.0
13 96 92.0
13 97 12.0
13 98 -5.0
13 99 -17.0
13 100 29.0
13 113 -1.0
14 91 16.0
14 92 -56.0
14 93 99.0
14 94 -69.0
14 95 38.0
14 96 40.0
14 97 97.0
14 98 29.0
14 99 30.0
14 100 68.0
14 114 -1.0
15 91 93.0
15 92 -34.0
15 93 59.0
15 94 -68.0
15 95 72.0
15 96 20.0
15 97 -16.0
15 98 96.0
15 99 73.0
15 100 -7.0
15 115 -1.0
16 91 68.0
16 92 68.0
16 93 47.0
16 94 -74.0
16 95 -5.0
16 96 56.0
16 98 13.0
16 99 -11.0
16 100 -93.0
16 116 -1.0
17 91 -15.0
17 92 16.0
17 93 -83.0
17 94 34.0
17 95 17.0
17 96 -53.0
17 97 48.0
17 98 91.0
17 99 72.0
17 100 -86.0
17 117 -1.0
18 91 -24.0
18 92 -100.0
18 93 43.0
18 94 -90.0
18 95 -96.0
18 96 51.0
18 97 25.0
18 98 86.0
18 99 9.0
18 100 -17.0
18 118 -1.0
19 91 -61.0
19 92 -39.0
19 93 -58.0
19 94 21.0
19 95 -26.0
19 96 -68.0
19 97 -8.0
19 98 60.0
19 99 -64.0
19 100 43.0
19 119 -1.0
20 91 -72.0
20 92 26.0
20 93 -52.0
20 94 -76.0
20 95 74.0
20 96 -80.0
20 97 50.0
20 98 -24.0
20 99 10.0
20 100 -85.0
20 120 -1.0
21 91 24.0
21 92 57.0
21 93 -16.0
21 94 64.0
21 95 9.0
21 96 45.0
21 97 -2.0
21 98 -48.0
21 100 -2.0
21 121 -1.0
22 91 69.0
22 92 83.0
22 93 -28.0
22 94 8.0
22 95 20.0
22 96 21.0
22 97 -12.0
22 98 41.0
22 99 -57.0
22 100 52.0
22 122 -1.0
23 91 57.0
23 92 -82.0
23 93 79.0
23 94 86.0
23 95 93.0
23 96 23.0
23 97 -87.0
23 98 -78.0
23 99 25.0
23 100 -86.0
23 123 -1.0
24 91 -53.0
24 92 22.0
24 93 86.0
24 94 13.0
24 95 14.0
24 96 -7.0
24 97 -76.0
24 98 -53.0
24 99 99.0
24 100 11.0
24 124 -1.0
25 91 -43.0
25 92 45.0
25 93 64.0
25 94 -2.0
25 95 18.0
25 96 -78.0
25 97 -69.0
25 98 39.0
25 99 18.0
25 100 76.0
25 125 -1.0
26 91 -58.0
26 92 -64.0
26 93 37.0
26 94 -57.0
26 95 -47.0
26 96 -56.0
26 97 -1.0
26 98 -47.0
26 99 -11.0
26 100 -53.0
26 126 -1.0
27 91 29.0
27 92 49.0
27 93 38.0
27 94 -15.0
27 95 51.0
27 96 -20.0
27 97 -25.0
27 98 27.0
27 99 6.0
27 100 79.0
27 127 -1.0
28 91 86.0
28 92 -99.0
28 93 -66.0
28 94 28.0
28 95 52.0
28 96 34.0
28 97 53.0
28 98 50.0
28 99 79.0
28 100 -57.0
28 128 -1.0
29 91 19.0
29 92 24.0
29 93 -27.0
29 94 -86.0
29 95 -50.0
29 96 -28.0
29 97 -3.0
29 99 -42.0
29 100 -53.0
29 129 -1.0
30 91 79.0
30 92 33.0
30 93 -92.0
30 94 67.0
30 95 13.0
30 96 -64.0
30 97 -95.0
30 98 -5.0
30 99 12.0
30 100 -67.0
30 130 -1.0
31 91 28.0
31 92 -39.0
31 93 91.0
31 94 52.0
31 95 26.0
31 96 -87.0
31 97 -74.0
31 98 51.0
31 99 -4.0
31 100 42.0
31 131 -1.0
32 91 27.0
32 92 -20.0
32 93 40.0
32 94 56.0
32 95 40.0
32 96 -47.0
32 97 55.0
32 98 -74.0
32 99 -45.0
32 100 -84.0
32 132 -1.0
33 91 -61.0
33 92 23.0
33 93 20.0
33 94 9.0
33 95 13.0
33 96 -75.0
33 97 -86.0
33 98 76.0
33 99 -70.0
33 100 12.0
33 133 -1.0
34 91 -33.0
34 92 -59.0
34 93 34.0
34 94 -93.0
34 95 -92.0
34 96 63.0
34 97 -88.0
34 98 41.0
34 99 -18.0
34 100 77.0
34 134 -1.0
35 91 -100.0
35 92 -30.0
35 93 87.0
35 94 98.0
35 95 -28.0
35 96 95.0
35 97 -95.0
35 98 -32.0
35 99 69.0
35 100 -12.0
35 135 -1.0
36 91 13.0
36 92 -80.0
36 93 -64.0
36 94 -52.0
36 95 36.0
36 96 97.0
36 97 2.0
36 98 80.0
36 99 -7.0
36 100 -5.0
36 136 -1.0
37 91 51.0
37 92 -77.0
37 93 -71.0
37 94 39.0
37 95 -48.0
37 96 5.0
37 97 -87.0
37 98 -71.0
37 99 -18.0
37 100 -84.0
37 137 -1.0
38 91 -97.0
38 92 -52.0
38 93 15.0
38 94 -68.0
38 95 -47.0
38 96 -85.0
38 97 -71.0
38 98 -83.0
38 99 -72.0
38 100 -6.0
38 138 -1.0
39 91 -5.0
39 92 11.0
39 93 -1.0
39 94 -84.0
39 95 -41.0
39 96 -41.0
39 97 -34.0
39 98 -83.0
39 99 -81.0
39 100 -60.0
39 139 -1.0
40 91 -66.0
40 92 66.0
40 93 65.0
40 94 84.0
40 95 6.0
40 96 -6.0
40 97 39.0
40 98 1.0
40 99 53.0
40 100 96.0
40 140 -1.0
41 91 33.0
41 92 78.0
41 93 70.0
41 94 50.0
41 95 42.0
41 96 -83.0
41 97 59.0
41 98 -25.0
41 99 -9.0
41 100 -27.0
41 141 -1.0
42 91 19.0
42 92 -89.0
42 93 -76.0
42 94 11.0
42 95 30.0
42 96 -88.0
42 97 4.0
42 98 68.0
42 99 -69.0
42 100 -100.0
42 142 -1.0
43 91 -57.0
43 92 -63.0
43 93 93.0
43 94 63.0
43 95 41.0
43 96 17.0
43 97 35.0
43 98 54.0
43 99 -54.0
43 100 -57.0
43 143 -1.0
44 91 64.0
44 92 -68.0
44 93 22.0
44 94 -76.0
44 95 -13.0
44 96 -100.0
44 97 3.0
44 98 -8.0
44 99 37.0
44 100 -94.0
44 144 -1.0
45 92 -44.0
45 93 99.0
45 94 -27.0
45 95 -26.0
45 96 90.0
45 97 -84.0
45 98 22.0
45 99 58.0
45 100 -29.0
45 145 -1.0
46 91 -64.0
46 92 -14.0
46 93 56.0
46 94 -77.0
46 95 6.0
46 96 -52.0
46 97 22.0
46 98 55.0
46 99 -64.0
46 100 -2.0
46 146 -1.0
47 91 -37.0
47 92 -28.0
47 93 -80.0
47 94 -26.0
47 95 77.0
47 96 78.0
47 97 97.0
47 98 -79.0
47 99 -70.0
47 100 87.0
47 147 -1.0
48 91 75.0
48 92 -48.0
48 93 -75.0
48 94 7.0
48 95 -31.0
48 96 -23.0
48 97 -26.0
48 98 -5.0
48 99 45.0
48 100 86.0
48 148 -1.0
49 91 -5.0
49 92 91.0
49 93 -40.0
49 94 -10.0
49 95 64.0
49 96 -24.0
49 97 45.0
49 98 -31.0
49 99 31.0
49 100 72.0
49 149 -1.0
50 91 60.0
50 92 85.0
50 93 -36.0
50 94 -5.0
50 95 13.0
50 96 -15.0
50 97 89.0
50 98 -83.0
50 99 -15.0
50 100 -38.0
50 150 -1.0
51 91 -29.0
51 92 6.0
51 93 -78.0
51 94 47.0
51 95 85.0
51 96 -72.0
51 97 88.0
51 98 -96.0
51 99 -20.0
51 100 -60.0
51 151 -1.0
52 91 -93.0
52 92 -19.0
52 93 -11.0
52 94 36.0
52 95 -49.0
52 96 62.0
52 97 -81.0
52 98 29.0
52 99 1.0
52 152 -1.0
53 91 26.0
53 92 -79.0
53 93 -58.0
53 94 77.0
53 95 97.0
53 96 -97.0
53 97 72.0
53 98 -76.0
53 99 -74.0
53 100 13.0
53 153 -1.0
54 91 72.0
54 92 8.0
54 93 -11.0
54 94 -37.0
54 95 -14.0
54 96 93.0
54 97 61.0
54 98 44.0
54 99 68.0
54 100 86.0
54 154 -1.0
55 91 -7.0
55 92 -22.0
55 93 -24.0
55 94 -50.0
55 95 -74.0
55 96 24.0
55 97 23.0
55 98 -2.0
55 99 3.0
55 100 56.0
55 155 -1.0
56 91 -15.0
56 92 -79.0
56 93 -54.0
56 94 80.0
56 95 15.0
56 96 62.0
56 97 56.0
56 98 41.0
56 99 -32.0
56 100 87.0
56 156 -1.0
57 91 44.0
57 92 66.0
57 93 -31.0
57 94 -35.0
57 95 -32.0
57 96 5.0
57 97 10.0
57 98 -97.0
57 99 -9.0
57 157 -1.0
58 91 1.0
58 92 -52.0
58 93 21.0
58 94 -41.0
58 95 82.0
58 96 13.0
58 97 -41.0
58 98 -3.0
58 99 -72.0
58 100 28.0
58 158 -1.0
59 91 64.0
59 92 2.0
59 93 -19.0
59 94 -69.0
59 95 43.0
59 96 -4.0
59 97 43.0
59 98 70.0
59 99 67.0
59 100 -5.0
59 159 -1.0
60 91 -84.0
60 92 -67.0
60 93 35.0
60 94 53.0
60 95 82.0
60 96 -14.0
60 97 71.0
60 98 -30.0
60 99 33.0
60 100 -57.0
60 160 -1.0
61 91 -60.0
61 92 -18.0
61 93 -23.0
61 94 73.0
61 95 -22.0
61 96 53.0
61 97 12.0
61 98 -25.0
61 99 81.0
61 100 69.0
61 161 -1.0
62 91 71.0
62 92 94.0
62 93 52.0
62 94 -68.0
62 95 -64.0
62 96 3.0
62 97 -38.0
62 98 96.0
62 99 43.0
62 100 15.0
62 162 -1.0
63 91 -17.0
63 92 -59.0
63 93 90.0
63 94 76.0
63 95 -99.0
63 96 -84.0
63 97 -42.0
63 98 73.0
63 99 95.0
63 100 28.0
63 163 -1.0
64 91 73.0
64 92 -37.0
64 93 98.0
64 94 -85.0
64 95 -45.0
64 96 66.0
64 97 -94.0
64 98 52.0
64 99 -23.0
64 100 -54.0
64 164 -1.0
65 91 -34.0
65 92 95.0
65 93 49.0
65 94 19.0
65 95 23.0
65 96 22.0
65 97 13.0
65 98 -34.0
65 99 22.0
65 100 -21.0
65 165 -1.0
66 91 -96.0
66 92 -23.0
66 93 22.0
66 94 19.0
66 95 87.0
66 96 57.0
66 97 63.0
66 98 64.0
66 99 22.0
66 100 -38.0
66 166 -1.0
67 91 -92.0
67 92 -62.0
67 93 16.0
67 94 -65.0
67 95 -12.0
67 97 1.0
67 98 -7.0
67 99 -38.0
67 100 -67.0
67 167 -1.0
68 91 -15.0
68 92 14.0
68 93 69.0
68 94 58.0
68 95 -75.0
68 96 85.0
68 97 15.0
68 98 -11.0
68 99 31.0
68 100 -55.0
68 168 -1.0
69 91 -34.0
69 92 -81.0
69 93 -18.0
69 94 34.0
69 95 5.0
69 96 -87.0
69 97 63.0
69 98 -79.0
69 99 -38.0
69 100 79.0
69 169 -1.0
70 91 -67.0
70 92 68.0
70 93 -96.0
70 94 98.0
70 95 11.0
70 96 16.0
70 97 -39.0
70 98 -74.0
70 99 90.0
70 100 -81.0
70 170 -1.0
71 91 6.0
71 92 -22.0
71 93 -57.0
71 94 -21.0
71 95 -61.0
71 96 92.0
71 97 8.0
71 98 41.0
71 99 -33.0
71 100 64.0
71 171 -1.0
72 91 54.0
72 92 -93.0
72 93 87.0
72 94 55.0
72 95 -9.0
72 96 84.0
72 97 -75.0
72 98 -88.0
72 99 79.0
72 100 -49.0
72 172 -1.0
73 91 -25.0
73 92 -97.0
73 93 15.0
73 94 20.0
73 95 -88.0
73 96 -8.0
73 97 56.0
73 98 -14.0
73 99 -71.0
73 100 -59.0
73 173 -1.0
74 91 47.0
74 92 -50.0
74 93 -42.0
74 94 -69.0
74 95 92.0
74 96 68.0
74 97 -64.0
74 98 35.0
74 99 -35.0
74 100 -67.0
74 174 -1.0
75 91 34.0
75 92 35.0
75 93 -51.0
75 94 -54.0
75 95 36.0
75 96 -38.0
75 97 -27.0
75 98 69.0
75 99 72.0
75 100 50.0
75 175 -1.0
76 91 -55.0
76 92 95.0
76 93 -92.0
76 94 19.0
76 95 3.0
76 96 -19.0
76 97 -61.0
76 98 34.0
76 99 2.0
76 100 56.0
76 176 -1.0
77 91 -49.0
77 92 -76.0
77 93 26.0
77 94 22.0
77 95 6.0
77 96 -76.0
77 97 -50.0
77 98 -95.0
77 99 -25.0
77 100 -50.0
77 177 -1.0
78 91 -96.0
78 92 -96.0
78 93 -46.0
78 94 88.0
78 95 48.0
78 96 2.0
78 97 -48.0
78 98 94.0
78 99 32.0
78 100 66.0
78 178 -1.0
79 91 7.0
79 92 -34.0
79 93 -30.0
79 94 -77.0
79 95 -65.0
79 96 93.0
79 97 65.0
79 98 22.0
79 99 34.0
79 100 -98.0
79 179 -1.0
80 91 -73.0
80 92 -93.0
80 93 -14.0
80 94 49.0
80 95 54.0
80 96 23.0
80 97 -93.0
80 98 -63.0
80 99 -87.0
80 100 -22.0
80 180 -1.0
81 91 99.0
81 92 91.0
81 93 -70.0
81 94 67.0
81 95 -18.0
81 96 -88.0
81 97 -70.0
81 98 80.0
81 99 39.0
81 100 -11.0
81 181 -1.0
82 91 -62.0
82 92 -32.0
82 93 46.0
82 94 -31.0
82 95 69.0
82 96 -47.0
82 97 23.0
82 98 -78.0
82 99 45.0
82 100 -66.0
82 182 -1.0
83 91 2.0
83 92 -67.0
83 93 31.0
83 94 -29.0
83 95 -5.0
83 96 5.0
83 97 94.0
83 98 77.0
83 99 -42.0
83 100 63.0
83 183 -1.0
84 91 -70.0
84 92 37.0
84 93 45.0
84 94 -86.0
84 95 49.0
84 96 -22.0
84 97 95.0
84 98 3.0
84 99 -19.0
84 184 -1.0
85 91 54.0
85 92 72.0
85 93 45.0
85 94 61.0
85 95 3.0
85 96 -7.0
85 97 -22.0
85 98 52.0
85 99 -8.0
85 100 71.0
85 185 -1.0
86 91 87.0
86 92 -9.0
86 93 -28.0
86 94 -65.0
86 95 -71.0
86 96 -53.0
86 97 13.0
86 98 -1.0
86 99 52.0
86 100 -26.0
86 186 -1.0
87 91 47.0
87 92 44.0
87 93 82.0
87 94 -62.0
87 95 -21.0
87 96 -80.0
87 97 -77.0
87 98 -67.0
87 99 86.0
87 100 -62.0
87 187 -1.0
88 91 83.0
88 92 -66.0
88 93 79.0
88 94 -59.0
88 95 -96.0
88 96 -67.0
88 97 -61.0
88 98 37.0
88 99 75.0
88 100 -84.0
88 188 -1.0
89 91 45.0
89 92 67.0
89 93 33.0
89 94 59.0
89 95 -93.0
89 96 46.0
89 97 -4.0
89 98 64.0
89 99 50.0
89 100 51.0
89 189 -1.0
90 91 -45.0
90 92 -23.0
90 93 34.0
90 94 33.0
90 95 56.0
90 96 -35.0
90 97 45.0
90 98 -83.0
90 99 -63.0
90 100 -25.0
90 190 -1.0
91 1 -1.0
91 191 -1.0
92 2 -1.0
92 192 -1.0
93 3 -1.0
93 193 -1.0
94 4 -1.0
94 194 -1.0
95 5 -1.0
95 195 -1.0
96 6 -1.0
96 196 -1.0
97 7 -1.0
97 197 -1.0
98 8 -1.0
98 198 -1.0
99 9 -1.0
99 199 -1.0
100 10 -1.0
100 200 -1.0
101 11 -1.0
101 201 -1.0
102 12 -1.0
102 202 -1.0
103 13 -1.0
103 203 -1.0
104 14 -1.0
104 204 -1.0
105 15 -1.0
105 205 -1.0
106 16 -1.0
106 206 -1.0
107 17 -1.0
107 207 -1.0
108 18 -1.0
108 208 -1.0
109 19 -1.0
109 209 -1.0
110 20 -1.0
110 210 -1.0
111 21 -1.0
111 211 -1.0
112 22 -1.0
112 212 -1.0
113 23 -1.0
113 213 -1.0
114 24 -1.0
114 214 -1.0
115 25 -1.0
115 215 -1.0
116 26 -1.0
116 216 -1.0
117 27 -1.0
117 217 -1.0
118 28 -1.0
118 218 -1.0
119 29 -1.0
119 219 -1.0
120 30 -1.0
120 220 -1.0
121 31 -1.0
121 221 -1.0
122 32 -1.0
122 222 -1.0
123 33 -1.0
123 223 -1.0
124 34 -1.0
124 224 -1.0
125 35 -1.0
125 225 -1.0
126 36 -1.0
126 226 -1.0
127 37 -1.0
127 227 -1.0
128 38 -1.0
128 228 -1.0
129 39 -1.0
129 229 -1.0
130 40 -1.0
130 230 -1.0
131 41 -1.0
131 231 -1.0
132 42 -1.0
132 232 -1.0
133 43 -1.0
133 233 -1.0
134 44 -1.0
134 234 -1.0
135 45 -1.0
135 235 -1.0
136 46 -1.0
136 236 -1.0
137 47 -1.0
137 237 -1.0
138 48 -1.0
138 238 -1.0
139 49 -1.0
139 239 -1.0
140 50 -1.0
140 240 -1.0
141 51 -1.0
141 241 -1.0
142 52 -1.0
142 242 -1.0
143 53 -1.0
143 243 -1.0
144 54 -1.0
144 244 -1.0
145 55 -1.0
145 245 -1.0
146 56 -1.0
146 246 -1.0
147 57 -1.0
147 247 -1.0
148 58 -1.0
148 248 -1.0
149 59 -1.0
149 249 -1.0
150 60 -1.0
150 250 -1.0
151 61 -1.0
151 251 -1.0
152 62 -1.0
152 252 -1.0
153 63 -1.0
153 253 -1.0
154 64 -1.0
154 254 -1.0
155 65 -1.0
155 255 -1.0
156 66 -1.0
156 256 -1.0
157 67 -1.0
157 257 -1.0
158 68 -1.0
158 258 -1.0
159 69 -1.0
159 259 -1.0
160 70 -1.0
160 260 -1.0
161 71 -1.0
161 261 -1.0
162 72 -1.0
162 262 -1.0
163 73 -1.0
163 263 -1.0
164 74 -1.0
164 264 -1.0
165 75 -1.0
165 265 -1.0
166 76 -1.0
166 266 -1.0
167 77 -1.0
167 267 -1.0
168 78 -1.0
168 268 -1.0
169 79 -1.0
169 269 -1.0
170 80 -1.0
170 270 -1.0
171 81 -1.0
171 271 -1.0
172 82 -1.0
172 272 -1.0
173 83 -1.0
173 273 -1.0
174 84 -1.0
174 274 -1.0
175 85 -1.0
175 275 -1.0
176 86 -1.0
176 276 -1.0
177 87 -1.0
177 277 -1.0
178 88 -1.0
178 278 -1.0
179 89 -1.0
179 279 -1.0
180 90 -1.0
180 280 -1.0
1.79769313486232E+308 # value for infinity
0.0 # default left-hand-side value
180 # number of non-default left-hand-sides
1 -1.79769313486232E+308
2 -1.79769313486232E+308
3 -1.79769313486232E+308
4 -1.79769313486232E+308
5 -1.79769313486232E+308
6 -1.79769313486232E+308
7 -1.79769313486232E+308
8 -1.79769313486232E+308
9 -1.79769313486232E+308
10 -1.79769313486232E+308
11 -1.79769313486232E+308
12 -1.79769313486232E+308
13 -1.79769313486232E+308
14 -1.79769313486232E+308
15 -1.79769313486232E+308
16 -1.79769313486232E+308
17 -1.79769313486232E+308
18 -1.79769313486232E+308
19 -1.79769313486232E+308
20 -1.79769313486232E+308
21 -1.79769313486232E+308
22 -1.79769313486232E+308
23 -1.79769313486232E+308
24 -1.79769313486232E+308
25 -1.79769313486232E+308
26 -1.79769313486232E+308
27 -1.79769313486232E+308
28 -1.79769313486232E+308
29 -1.79769313486232E+308
30 -1.79769313486232E+308
31 -1.79769313486232E+308
32 -1.79769313486232E+308
33 -1.79769313486232E+308
34 -1.79769313486232E+308
35 -1.79769313486232E+308
36 -1.79769313486232E+308
37 -1.79769313486232E+308
38 -1.79769313486232E+308
39 -1.79769313486232E+308
40 -1.79769313486232E+308
41 -1.79769313486232E+308
42 -1.79769313486232E+308
43 -1.79769313486232E+308
44 -1.79769313486232E+308
45 -1.79769313486232E+308
46 -1.79769313486232E+308
47 -1.79769313486232E+308
48 -1.79769313486232E+308
49 -1.79769313486232E+308
50 -1.79769313486232E+308
51 -1.79769313486232E+308
52 -1.79769313486232E+308
53 -1.79769313486232E+308
54 -1.79769313486232E+308
55 -1.79769313486232E+308
56 -1.79769313486232E+308
57 -1.79769313486232E+308
58 -1.79769313486232E+308
59 -1.79769313486232E+308
60 -1.79769313486232E+308
61 -1.79769313486232E+308
62 -1.79769313486232E+308
63 -1.79769313486232E+308
64 -1.79769313486232E+308
65 -1.79769313486232E+308
66 -1.79769313486232E+308
67 -1.79769313486232E+308
68 -1.79769313486232E+308
69 -1.79769313486232E+308
70 -1.79769313486232E+308
71 -1.79769313486232E+308
72 -1.79769313486232E+308
73 -1.79769313486232E+308
74 -1.79769313486232E+308
75 -1.79769313486232E+308
76 -1.79769313486232E+308
77 -1.79769313486232E+308
78 -1.79769313486232E+308
79 -1.79769313486232E+308
80 -1.79769313486232E+308
81 -1.79769313486232E+308
82 -1.79769313486232E+308
83 -1.79769313486232E+308
84 -1.79769313486232E+308
85 -1.79769313486232E+308
86 -1.79769313486232E+308
87 -1.79769313486232E+308
88 -1.79769313486232E+308
89 -1.79769313486232E+308
90 -1.79769313486232E+308
91 -1.0
92 -1.0
93 -1.0
94 -1.0
95 -1.0
96 -1.0
97 -1.0
98 -1.0
99 -1.0
100 -1.0
101 -1.0
102 -1.0
103 -1.0
104 -1.0
105 -1.0
106 -1.0
107 -1.0
108 -1.0
109 -1.0
110 -1.0
111 -1.0
112 -1.0
113 -1.0
114 -1.0
115 -1.0
116 -1.0
117 -1.0
118 -1.0
119 -1.0
120 -1.0
121 -1.0
122 -1.0
123 -1.0
124 -1.0
125 -1.0
126 -1.0
127 -1.0
128 -1.0
129 -1.0
130 -1.0
131 -1.0
132 -1.0
133 -1.0
134 -1.0
135 -1.0
136 -1.0
137 -1.0
138 -1.0
139 -1.0
140 -1.0
141 -1.0
142 -1.0
143 -1.0
144 -1.0
145 -1.0
146 -1.0
147 -1.0
148 -1.0
149 -1.0
150 -1.0
151 -1.0
152 -1.0
153 -1.0
154 -1.0
155 -1.0
156 -1.0
157 -1.0
158 -1.0
159 -1.0
160 -1.0
161 -1.0
162 -1.0
163 -1.0
164 -1.0
165 -1.0
166 -1.0
167 -1.0
168 -1.0
169 -1.0
170 -1.0
171 -1.0
172 -1.0
173 -1.0
174 -1.0
175 -1.0
176 -1.0
177 -1.0
178 -1.0
179 -1.0
180 -1.0
0.0 # default right-hand-side value
179 # number of non-default right-hand-sides
1 -11.0
2 -78.0
3 57.0
4 -47.0
6 -11.0
7 81.0
8 -13.0
9 -90.0
10 -68.0
11 87.0
12 -81.0
13 75.0
14 36.0
15 -51.0
16 -34.0
17 7.0
18 -22.0
19 -5.0
20 -25.0
21 -2.0
22 -39.0
23 11.0
24 72.0
25 -14.0
26 -41.0
27 30.0
28 26.0
29 32.0
30 21.0
31 -77.0
32 -58.0
33 -37.0
34 87.0
35 40.0
36 -19.0
37 27.0
38 44.0
39 -79.0
40 -7.0
41 55.0
42 79.0
43 -26.0
44 -19.0
45 94.0
46 86.0
47 56.0
48 -1.0
49 32.0
50 39.0
51 -80.0
52 -69.0
53 -74.0
54 -77.0
55 -45.0
56 -59.0
57 -50.0
58 -74.0
59 82.0
60 -2.0
61 -44.0
62 -16.0
63 -16.0
64 -90.0
65 46.0
66 63.0
67 50.0
68 -93.0
69 -71.0
70 -75.0
71 7.0
72 79.0
73 83.0
74 58.0
75 -77.0
76 -6.0
77 21.0
78 -91.0
79 99.0
80 16.0
81 -49.0
82 -94.0
83 -36.0
84 -4.0
85 -61.0
86 61.0
87 64.0
88 -61.0
89 -52.0
90 10.0
91 -1.0
92 -1.0
93 -1.0
94 -1.0
95 -1.0
96 -1.0
97 -1.0
98 -1.0
99 -1.0
100 -1.0
101 -1.0
102 -1.0
103 -1.0
104 -1.0
105 -1.0
106 -1.0
107 -1.0
108 -1.0
109 -1.0
110 -1.0
111 -1.0
112 -1.0
113 -1.0
114 -1.0
115 -1.0
116 -1.0
117 -1.0
118 -1.0
119 -1.0
120 -1.0
121 -1.0
122 -1.0
123 -1.0
124 -1.0
125 -1.0
126 -1.0
127 -1.0
128 -1.0
129 -1.0
130 -1.0
131 -1.0
132 -1.0
133 -1.0
134 -1.0
135 -1.0
136 -1.0
137 -1.0
138 -1.0
139 -1.0
140 -1.0
141 -1.0
142 -1.0
143 -1.0
144 -1.0
145 -1.0
146 -1.0
147 -1.0
148 -1.0
149 -1.0
150 -1.0
151 -1.0
152 -1.0
153 -1.0
154 -1.0
155 -1.0
156 -1.0
157 -1.0
158 -1.0
159 -1.0
160 -1.0
161 -1.0
162 -1.0
163 -1.0
164 -1.0
165 -1.0
166 -1.0
167 -1.0
168 -1.0
169 -1.0
170 -1.0
171 -1.0
172 -1.0
173 -1.0
174 -1.0
175 -1.0
176 -1.0
177 -1.0
178 -1.0
179 -1.0
180 -1.0
-1.79769313486232E+308 # default variable lower bound value
180 # number of non-default variable lower bounds
1 0.0
2 0.0
3 0.0
4 0.0
5 0.0
6 0.0
7 0.0
8 0.0
9 0.0
10 0.0
11 0.0
12 0.0
13 0.0
14 0.0
15 0.0
16 0.0
17 0.0
18 0.0
19 0.0
20 0.0
21 0.0
22 0.0
23 0.0
24 0.0
25 0.0
26 0.0
27 0.0
28 0.0
29 0.0
30 0.0
31 0.0
32 0.0
33 0.0
34 0.0
35 0.0
36 0.0
37 0.0
38 0.0
39 0.0
40 0.0
41 0.0
42 0.0
43 0.0
44 0.0
45 0.0
46 0.0
47 0.0
48 0.0
49 0.0
50 0.0
51 0.0
52 0.0
53 0.0
54 0.0
55 0.0
56 0.0
57 0.0
58 0.0
59 0.0
60 0.0
61 0.0
62 0.0
63 0.0
64 0.0
65 0.0
66 0.0
67 0.0
68 0.0
69 0.0
70 0.0
71 0.0
72 0.0
73 0.0
74 0.0
75 0.0
76 0.0
77 0.0
78 0.0
79 0.0
80 0.0
81 0.0
82 0.0
83 0.0
84 0.0
85 0.0
86 0.0
87 0.0
88 0.0
89 0.0
90 0.0
101 0.0
102 0.0
103 0.0
104 0.0
105 0.0
106 0.0
107 0.0
108 0.0
109 0.0
110 0.0
111 0.0
112 0.0
113 0.0
114 0.0
115 0.0
116 0.0
117 0.0
118 0.0
119 0.0
120 0.0
121 0.0
122 0.0
123 0.0
124 0.0
125 0.0
126 0.0
127 0.0
128 0.0
129 0.0
130 0.0
131 0.0
132 0.0
133 0.0
134 0.0
135 0.0
136 0.0
137 0.0
138 0.0
139 0.0
140 0.0
141 0.0
142 0.0
143 0.0
144 0.0
145 0.0
146 0.0
147 0.0
148 0.0
149 0.0
150 0.0
151 0.0
152 0.0
153 0.0
154 0.0
155 0.0
156 0.0
157 0.0
158 0.0
159 0.0
160 0.0
161 0.0
162 0.0
163 0.0
164 0.0
165 0.0
166 0.0
167 0.0
168 0.0
169 0.0
170 0.0
171 0.0
172 0.0
173 0.0
174 0.0
175 0.0
176 0.0
177 0.0
178 0.0
179 0.0
180 0.0
181 0.0
182 0.0
183 0.0
184 0.0
185 0.0
186 0.0
187 0.0
188 0.0
189 0.0
190 0.0
1.79769313486232E+308 # default variable upper bound value
90 # number of non-default variable upper bounds
1 1.0
2 1.0
3 1.0
4 1.0
5 1.0
6 1.0
7 1.0
8 1.0
9 1.0
10 1.0
11 1.0
12 1.0
13 1.0
14 1.0
15 1.0
16 1.0
17 1.0
18 1.0
19 1.0
20 1.0
21 1.0
22 1.0
23 1.0
24 1.0
25 1.0
26 1.0
27 1.0
28 1.0
29 1.0
30 1.0
31 1.0
32 1.0
33 1.0
34 1.0
35 1.0
36 1.0
37 1.0
38 1.0
39 1.0
40 1.0
41 1.0
42 1.0
43 1.0
44 1.0
45 1.0
46 1.0
47 1.0
48 1.0
49 1.0
50 1.0
51 1.0
52 1.0
53 1.0
54 1.0
55 1.0
56 1.0
57 1.0
58 1.0
59 1.0
60 1.0
61 1.0
62 1.0
63 1.0
64 1.0
65 1.0
66 1.0
67 1.0
68 1.0
69 1.0
70 1.0
71 1.0
72 1.0
73 1.0
74 1.0
75 1.0
76 1.0
77 1.0
78 1.0
79 1.0
80 1.0
81 1.0
82 1.0
83 1.0
84 1.0
85 1.0
86 1.0
87 1.0
88 1.0
89 1.0
90 1.0
0 # default variable type
90 # number of non-default variable types
1 1
2 1
3 1
4 1
5 1
6 1
7 1
8 1
9 1
10 1
11 1
12 1
13 1
14 1
15 1
16 1
17 1
18 1
19 1
20 1
21 1
22 1
23 1
24 1
25 1
26 1
27 1
28 1
29 1
30 1
31 1
32 1
33 1
34 1
35 1
36 1
37 1
38 1
39 1
40 1
41 1
42 1
43 1
44 1
45 1
46 1
47 1
48 1
49 1
50 1
51 1
52 1
53 1
54 1
55 1
56 1
57 1
58 1
59 1
60 1
61 1
62 1
63 1
64 1
65 1
66 1
67 1
68 1
69 1
70 1
71 1
72 1
73 1
74 1
75 1
76 1
77 1
78 1
79 1
80 1
81 1
82 1
83 1
84 1
85 1
86 1
87 1
88 1
89 1
90 1
0.0 # default variable primal value in starting point
0 # number of non-default variable primal values in starting point
0.0 # default constraint dual value in starting point
0 # number of non-default constraint dual values in starting point
0.0 # default variable bound dual value in starting point
0 # number of non-default variable bound dual values in starting point
0 # number of non-default variable names
0 # number of non-default constraint names
